
Gurobi 6.5.2 (win64) logging started 07/24/16 17:28:52


Gurobi 6.5.2 (win64) logging started 07/24/16 17:28:52

Optimize a model with 3274 rows, 759 columns and 8299 nonzeros
Coefficient statistics:
  Matrix range    [6e-08, 1e+03]
  Objective range [1e+00, 1e+00]
  Bounds range    [1e+00, 1e+00]
  RHS range       [6e-06, 2e+03]
Presolve removed 3038 rows and 513 columns
Presolve time: 0.02s
Presolved: 236 rows, 246 columns, 1027 nonzeros
Variable types: 246 continuous, 0 integer (0 binary)

Root relaxation: objective 2.202273e+01, 243 iterations, 0.00 seconds

    Nodes    |    Current Node    |     Objective Bounds      |     Work
 Expl Unexpl |  Obj  Depth IntInf | Incumbent    BestBd   Gap | It/Node Time

*    0     0               0      22.0227289   22.02273  0.00%     -    0s

Explored 0 nodes (243 simplex iterations) in 0.02 seconds
Thread count was 8 (of 8 available processors)

Optimal solution found (tolerance 1.00e-04)
Best objective 2.202272886066e+01, best bound 2.202272886066e+01, gap 0.0%

Wrote requested result file 'H1\instance12\\Results12EC_Sol5.lp'

